datasets/2-dimensional/CL_08_25_08.vbp
2
150 150 
25
43 68 30
53 63 72
45 70 4
65 46 88
23 95 54
97 19 64
91 25 90
77 38 26
73 39 94
42 75 28
56 62 72
53 60 49
77 37 54
40 77 19
38 72 28
38 78 61
28 83 84
28 85 23
82 32 67
21 89 53
23 88 54
52 65 16
99 17 9
22 92 54
26 90 77
