datasets/2-dimensional-benchmark/CL_08_25_08.txt
150 150 
0 30 43 68 
1 72 53 63 
2 4 45 70 
3 88 65 46 
4 54 23 95 
5 64 97 19 
6 90 91 25 
7 26 77 38 
8 94 73 39 
9 28 42 75 
10 72 56 62 
11 49 53 60 
12 54 77 37 
13 19 40 77 
14 28 38 72 
15 61 38 78 
16 84 28 83 
17 23 28 85 
18 67 82 32 
19 53 21 89 
20 54 23 88 
21 16 52 65 
22 9 99 17 
23 54 22 92 
24 77 26 90 
